QBPP_HJ-_25_025_06_2
25 215 51
33 40 33 7 28 37 44 37 37 24 8 43 34 37 12 34 9 12 30 19 5 7 32 40 2
    0   -8    0    0    0    0    0    0    0    0    0    0    0    0    0    0    0    0  -98  -44  -75    0    0    0  -27
   -8    0  -36    0    0    0  -67    0    0  -26  -74    0    0   -8    0    0    0    0    0  -43    0    0    0  -93    0
    0  -36    0    0    0   -3    0    0  -85    0    0  -13  -72    0   -7    0    0    0    0    0    0    0  -97    0    0
    0    0    0    0    0    0    0    0  -90    0  -74  -90    0  -71  -22    0    0    0   -9    0  -58    0    0    0  -23
    0    0    0    0    0    0    0    0    0    0    0    0    0    0    0    0    0    0    0  -31    0  -57    0  -55    0
    0    0   -3    0    0    0    0    0  -34  -58    0    0    0    0   -2    0  -62    0  -24    0    0    0    0    0    0
    0  -67    0    0    0    0    0    0    0    0    0    0    0    0  -30    0    0    0    0    0    0    0  -93    0    0
    0    0    0    0    0    0    0    0    0    0    0    0    0    0    0  -90    0    0    0    0    0  -50    0    0    0
    0    0  -85  -90    0  -34    0    0    0    0    0    0    0    0    0    0   -9    0    0    0    0    0    0    0    0
    0  -26    0    0    0  -58    0    0    0    0    0    0    0    0    0  -58  -45    0    0    0    0    0    0    0    0
    0  -74    0  -74    0    0    0    0    0    0    0    0    0    0    0   -9    0    0    0  -62    0    0    0  -80    0
    0    0  -13  -90    0    0    0    0    0    0    0    0    0    0    0    0  -77    0  -17    0    0    0    0    0  -47
    0    0  -72    0    0    0    0    0    0    0    0    0    0    0  -50  -92  -41    0    0  -29    0    0    0    0    0
    0   -8    0  -71    0    0    0    0    0    0    0    0    0    0  -18   -5    0    0  -86    0    0    0    0    0    0
    0    0   -7  -22    0   -2  -30    0    0    0    0    0  -50  -18    0  -22    0  -71    0    0  -18    0    0    0    0
    0    0    0    0    0    0    0  -90    0  -58   -9    0  -92   -5  -22    0  -93    0    0    0    0    0    0  -58    0
    0    0    0    0    0  -62    0    0   -9  -45    0  -77  -41    0    0  -93    0  -54    0    0  -68    0    0    0    0
    0    0    0    0    0    0    0    0    0    0    0    0    0    0  -71    0  -54    0    0    0    0    0  -66    0    0
  -98    0    0   -9    0  -24    0    0    0    0    0  -17    0  -86    0    0    0    0    0    0  -85  -45    0    0    0
  -44  -43    0    0  -31    0    0    0    0    0  -62    0  -29    0    0    0    0    0    0    0    0    0    0    0    0
  -75    0    0  -58    0    0    0    0    0    0    0    0    0    0  -18    0  -68    0  -85    0    0    0    0    0  -92
    0    0    0    0  -57    0    0  -50    0    0    0    0    0    0    0    0    0    0  -45    0    0    0    0    0    0
    0    0  -97    0    0    0  -93    0    0    0    0    0    0    0    0    0    0  -66    0    0    0    0    0    0    0
    0  -93    0    0  -55    0    0    0    0    0  -80    0    0    0    0  -58    0    0    0    0    0    0    0    0    0
  -27    0    0  -23    0    0    0    0    0    0    0  -47    0    0    0    0    0    0    0    0  -92    0    0    0    0
